data/solutions/recovery/degenerate/intermediate/flexible/degenerate_intermediate_instance23/21.sol
Elapsed time: 100.06
Upper bound: 227112295.0
Planning weighted value: 9.01043660405e+11
C[0]=227112295.0
C[1]=226885861.0
C[2]=226810964.0
C[3]=226690521.0
C[4]=226573767.0
C[5]=225876708.0
C[6]=225596974.0
C[7]=225203748.0
C[8]=224815597.0
C[9]=223471024.0
C[10]=223368441.0
C[11]=0.0
y[0]=5
y[1]=7
y[2]=6
y[3]=0
y[4]=9
y[5]=2
y[6]=2
y[7]=4
y[8]=5
y[9]=10
y[10]=6
y[11]=4
y[12]=5
y[13]=2
y[14]=6
y[15]=7
y[16]=3
y[17]=2
y[18]=7
y[19]=7
y[20]=4
y[21]=2
y[22]=6
y[23]=0
y[24]=9
y[25]=6
y[26]=9
y[27]=6
y[28]=10
y[29]=9
y[30]=8
y[31]=1
y[32]=3
y[33]=7
y[34]=7
y[35]=2
y[36]=9
y[37]=0
y[38]=1
y[39]=6
y[40]=10
y[41]=5
y[42]=5
y[43]=4
y[44]=2
y[45]=8
y[46]=5
y[47]=6
y[48]=9
y[49]=9
y[50]=3
y[51]=10
y[52]=10
y[53]=5
y[54]=0
y[55]=3
y[56]=0
y[57]=4
y[58]=3
y[59]=0
y[60]=8
y[61]=3
y[62]=1
y[63]=1
y[64]=10
y[65]=1
y[66]=3
y[67]=2
y[68]=8
y[69]=5
y[70]=10
y[71]=0
y[72]=8
y[73]=8
y[74]=3
y[75]=1
y[76]=10
y[77]=5
