data/solutions/recovery/degenerate/intermediate/flexible/degenerate_intermediate_instance23/21.log

Log started (V12.6.3.0) Sat Apr 21 15:03:42 2018

New value for default parallel thread count: 1

Problem '/tmp/tmp7znI3n.pyomo.lp' read.
Read time = 0.01 sec. (0.85 ticks)

Problem name         : /tmp/tmp7znI3n.pyomo.lp
Objective sense      : Minimize
Variables            :     950  [Nneg: 1,  Binary: 936,  General Integer: 13]
Objective nonzeros   :       1
Linear constraints   :     182  [Less: 90,  Equal: 92]
  Nonzeros           :   61117
  RHS nonzeros       :     157

Variables            : Min LB: 0.000000         Max UB: 1.000000       
Objective nonzeros   : Min   : 1.000000         Max   : 1.000000       
Linear constraints   :
  Nonzeros           : Min   : 1.000000         Max   : 6.145599e+07   
  RHS nonzeros       : Min   : 1.000000         Max   : 8.000000       
Tried aggregator 2 times.
MIP Presolve eliminated 81 rows and 140 columns.
Aggregator did 6 substitutions.
Reduced MIP has 95 rows, 804 columns, and 2247 nonzeros.
Reduced MIP has 792 binaries, 12 generals, 0 SOSs, and 0 indicators.
Presolve time = 0.01 sec. (11.04 ticks)
Found incumbent of value 8.2674447e+08 after 0.01 sec. (12.59 ticks)
Probing time = 0.00 sec. (1.59 ticks)
Tried aggregator 1 time.
Reduced MIP has 95 rows, 804 columns, and 2247 nonzeros.
Reduced MIP has 792 binaries, 12 generals, 0 SOSs, and 0 indicators.
Presolve time = 0.00 sec. (1.15 ticks)
Probing time = 0.00 sec. (1.59 ticks)
Clique table members: 72.
MIP emphasis: balance optimality and feasibility.
MIP search method: dynamic search.
Parallel mode: none, using 1 thread.
Root relaxation solution time = 0.00 sec. (1.56 ticks)

        Nodes                                         Cuts/
   Node  Left     Objective  IInf  Best Integer    Best Bound    ItCnt     Gap

*     0+    0                       8.26744e+08        0.0000           100.00%
      0     0   2.25673e+08    30   8.26744e+08   2.25673e+08      137   72.70%
      0     0   2.25673e+08    31   8.26744e+08      Fract: 8      165   72.70%
      0     0   2.25673e+08    22   8.26744e+08      Fract: 1      173   72.70%
*     0+    0                       2.54447e+08   2.25673e+08            11.31%
*     0+    0                       2.37724e+08   2.25673e+08             5.07%
      0     2   2.25673e+08    16   2.37724e+08   2.25673e+08      173    5.07%
Elapsed time = 0.06 sec. (66.81 ticks, tree = 0.01 MB, solutions = 3)
*   996+  468                       2.35268e+08   2.25673e+08             4.08%
*   997+  462                       2.34786e+08   2.25673e+08             3.88%
    997   464   2.25673e+08    16   2.34786e+08   2.25673e+08     5463    3.88%
    998   463        cutoff         2.34786e+08   2.25673e+08     5475    3.88%
*   999+  308                       2.34285e+08   2.25673e+08             3.68%
    999   309   2.25673e+08    23   2.34285e+08   2.25673e+08     5866    3.68%
   1000   310   2.25673e+08    24   2.34285e+08   2.25673e+08     5879    3.68%
   1001   311   2.25673e+08    21   2.34285e+08   2.25673e+08     5883    3.68%
   1002   312   2.25673e+08    23   2.34285e+08   2.25673e+08     5886    3.68%
   1003   313   2.25673e+08    21   2.34285e+08   2.25673e+08     5888    3.68%
   1004   314   2.25673e+08    19   2.34285e+08   2.25673e+08     5892    3.68%
   1005   315   2.25673e+08    20   2.34285e+08   2.25673e+08     5894    3.68%
*  1099+  258                       2.33854e+08   2.25673e+08             3.50%
*  1099+  199                       2.33682e+08   2.25673e+08             3.43%
*  1199+  175                       2.33183e+08   2.25673e+08             3.22%
*  1199+  158                       2.32229e+08   2.25673e+08             2.82%
*  1199+  148                       2.32116e+08   2.25673e+08             2.78%
*  1399+  166                       2.31593e+08   2.25673e+08             2.56%
   1399   167   2.30281e+08    25   2.31593e+08   2.25673e+08     8221    2.56%
Elapsed time = 0.88 sec. (1083.58 ticks, tree = 0.09 MB, solutions = 12)
*  1499+  205                       2.30140e+08   2.25673e+08             1.94%
*  1999+  437                       2.29638e+08   2.25673e+08             1.73%
   2419   667        cutoff         2.29638e+08   2.25673e+08    16546    1.73%
   2420   668   2.27696e+08    18   2.29638e+08   2.25673e+08    16547    1.73%
   2421   669   2.27696e+08    18   2.29638e+08   2.25673e+08    16553    1.73%
   2422   670   2.27696e+08    18   2.29638e+08   2.25673e+08    16554    1.73%
   2423   671   2.27696e+08    17   2.29638e+08   2.25673e+08    16556    1.73%
   2424   672   2.27696e+08    27   2.29638e+08   2.25673e+08    16561    1.73%
   2425   673   2.27696e+08    27   2.29638e+08   2.25673e+08    16568    1.73%
   2426   674   2.27696e+08    27   2.29638e+08   2.25673e+08    16571    1.73%
   2427   675   2.27696e+08    26   2.29638e+08   2.25673e+08    16572    1.73%
   2428   676   2.27696e+08    27   2.29638e+08   2.25673e+08    16573    1.73%
Elapsed time = 1.67 sec. (2038.57 ticks, tree = 0.41 MB, solutions = 14)
*  4879+ 2374                       2.29616e+08   2.25673e+08             1.72%
   4900  2385   2.25673e+08    26   2.29616e+08   2.25673e+08    37738    1.72%
   4901  2386   2.25673e+08    22   2.29616e+08   2.25673e+08    37748    1.72%
   4902  2387   2.25673e+08    23   2.29616e+08   2.25673e+08    37754    1.72%
   4903  2388   2.25673e+08    23   2.29616e+08   2.25673e+08    37756    1.72%
   4904  2389   2.25673e+08    23   2.29616e+08   2.25673e+08    37757    1.72%
   4905  2390   2.25673e+08    23   2.29616e+08   2.25673e+08    37758    1.72%
   4906  2391   2.25673e+08    24   2.29616e+08   2.25673e+08    37761    1.72%
   4907  2392   2.25673e+08    24   2.29616e+08   2.25673e+08    37762    1.72%
   4908  2393   2.25673e+08    22   2.29616e+08   2.25673e+08    37763    1.72%
   4909  2394   2.25673e+08    22   2.29616e+08   2.25673e+08    37766    1.72%
Elapsed time = 2.40 sec. (2994.96 ticks, tree = 1.49 MB, solutions = 15)
*  6313  3367      integral     0   2.29531e+08   2.25673e+08    54671    1.68%
*  6413+ 3351                       2.29174e+08   2.25673e+08             1.53%
*  6439+ 2936                       2.27725e+08   2.25673e+08             0.90%
   6559  3002   2.25673e+08    25   2.27725e+08   2.25673e+08    58974    0.90%
   6560  3003   2.25673e+08    25   2.27725e+08   2.25673e+08    58976    0.90%
   6561  3004   2.25673e+08    25   2.27725e+08   2.25673e+08    58977    0.90%
   6562  3005   2.25673e+08    25   2.27725e+08   2.25673e+08    58994    0.90%
   6563  3006   2.25673e+08    24   2.27725e+08   2.25673e+08    59001    0.90%
   6564  3007   2.25673e+08    24   2.27725e+08   2.25673e+08    59002    0.90%
   6565  3008   2.25673e+08    24   2.27725e+08   2.25673e+08    59013    0.90%
   6566  3009   2.25673e+08    24   2.27725e+08   2.25673e+08    59014    0.90%
   6567  3010   2.25673e+08    24   2.27725e+08   2.25673e+08    59027    0.90%
   6568  3011   2.25673e+08    23   2.27725e+08   2.25673e+08    59029    0.90%
Elapsed time = 3.15 sec. (3952.31 ticks, tree = 1.84 MB, solutions = 18)
   8071  3956   2.25673e+08    26   2.27725e+08   2.25673e+08    83459    0.90%
   8072  3957   2.25673e+08    20   2.27725e+08   2.25673e+08    83514    0.90%
   8073  3958   2.25673e+08    20   2.27725e+08   2.25673e+08    83546    0.90%
   8074  3959   2.25673e+08    20   2.27725e+08   2.25673e+08    83548    0.90%
   8075  3960   2.25673e+08    20   2.27725e+08   2.25673e+08    83550    0.90%
   8076  3961   2.25673e+08    21   2.27725e+08   2.25673e+08    83556    0.90%
   8077  3962   2.25673e+08    21   2.27725e+08   2.25673e+08    83571    0.90%
   8078  3963   2.25673e+08    21   2.27725e+08   2.25673e+08    83585    0.90%
   8079  3964   2.25673e+08    19   2.27725e+08   2.25673e+08    83599    0.90%
   8080  3965   2.25673e+08    19   2.27725e+08   2.25673e+08    83602    0.90%
Elapsed time = 3.86 sec. (4912.14 ticks, tree = 2.40 MB, solutions = 18)
   9617  4828   2.25936e+08    33   2.27725e+08   2.25673e+08   108879    0.90%
   9618  4827        cutoff         2.27725e+08   2.25673e+08   108891    0.90%
   9619  4826        cutoff         2.27725e+08   2.25673e+08   108978    0.90%
   9620  4825    infeasible         2.27725e+08   2.25673e+08   108978    0.90%
   9621  4824        cutoff         2.27725e+08   2.25673e+08   109105    0.90%
   9622  4823    infeasible         2.27725e+08   2.25673e+08   109105    0.90%
   9623  4822    infeasible         2.27725e+08   2.25673e+08   109211    0.90%
   9624  4823   2.25673e+08    26   2.27725e+08   2.25673e+08   109335    0.90%
   9625  4822    infeasible         2.27725e+08   2.25673e+08   109403    0.90%
   9626  4823   2.25673e+08    17   2.27725e+08   2.25673e+08   109409    0.90%
Elapsed time = 4.58 sec. (5884.19 ticks, tree = 3.02 MB, solutions = 18)
  10959  5638   2.25673e+08    28   2.27725e+08   2.25673e+08   131913    0.90%
  10960  5637        cutoff         2.27725e+08   2.25673e+08   131978    0.90%
  10961  5638   2.25673e+08    33   2.27725e+08   2.25673e+08   132105    0.90%
  10962  5639   2.25673e+08    32   2.27725e+08   2.25673e+08   132114    0.90%
  10963  5640   2.25673e+08    32   2.27725e+08   2.25673e+08   132115    0.90%
  10964  5641   2.25830e+08    41   2.27725e+08   2.25673e+08   132135    0.90%
  10965  5642   2.27239e+08    19   2.27725e+08   2.25673e+08   132178    0.90%
  10966  5643   2.27239e+08    20   2.27725e+08   2.25673e+08   132181    0.90%
  10967  5644   2.27239e+08    20   2.27725e+08   2.25673e+08   132185    0.90%
  10968  5645   2.27239e+08    20   2.27725e+08   2.25673e+08   132189    0.90%
Elapsed time = 5.83 sec. (7380.18 ticks, tree = 3.47 MB, solutions = 18)
  12232  6331    infeasible         2.27725e+08   2.25673e+08   157370    0.90%
  12233  6332   2.26693e+08    30   2.27725e+08   2.25673e+08   157465    0.90%
  12234  6333   2.26693e+08    30   2.27725e+08   2.25673e+08   157466    0.90%
  12235  6334   2.26693e+08    30   2.27725e+08   2.25673e+08   157467    0.90%
  12236  6335   2.26693e+08    28   2.27725e+08   2.25673e+08   157483    0.90%
  12237  6336   2.26693e+08    28   2.27725e+08   2.25673e+08   157484    0.90%
  12238  6337   2.26693e+08    25   2.27725e+08   2.25673e+08   157492    0.90%
  12239  6338   2.26693e+08    25   2.27725e+08   2.25673e+08   157495    0.90%
  12240  6339   2.26693e+08    25   2.27725e+08   2.25673e+08   157496    0.90%
  12241  6340   2.26693e+08    27   2.27725e+08   2.25673e+08   157503    0.90%
Elapsed time = 6.53 sec. (8342.29 ticks, tree = 3.89 MB, solutions = 18)
  13561  7251   2.25673e+08    24   2.27725e+08   2.25673e+08   181424    0.90%
  13562  7252   2.25673e+08    24   2.27725e+08   2.25673e+08   181427    0.90%
  13563  7253   2.25673e+08    22   2.27725e+08   2.25673e+08   181439    0.90%
  13564  7254   2.25673e+08    22   2.27725e+08   2.25673e+08   181440    0.90%
  13565  7255   2.25673e+08    22   2.27725e+08   2.25673e+08   181441    0.90%
  13566  7256   2.25673e+08    22   2.27725e+08   2.25673e+08   181482    0.90%
  13567  7257   2.25673e+08    21   2.27725e+08   2.25673e+08   181483    0.90%
  13568  7258   2.25673e+08    20   2.27725e+08   2.25673e+08   181486    0.90%
  13569  7259   2.25673e+08    21   2.27725e+08   2.25673e+08   181498    0.90%
  13570  7260   2.25673e+08    18   2.27725e+08   2.25673e+08   181501    0.90%
Elapsed time = 7.23 sec. (9298.28 ticks, tree = 4.44 MB, solutions = 18)
  15574  8429   2.25882e+08    33   2.27725e+08   2.25673e+08   208741    0.90%
  15575  8430   2.25882e+08    32   2.27725e+08   2.25673e+08   208754    0.90%
  15576  8431   2.25913e+08    30   2.27725e+08   2.25673e+08   208784    0.90%
  15577  8432   2.25913e+08    29   2.27725e+08   2.25673e+08   208790    0.90%
  15578  8433   2.25913e+08    30   2.27725e+08   2.25673e+08   208803    0.90%
  15579  8434   2.25913e+08    30   2.27725e+08   2.25673e+08   208804    0.90%
  15580  8435   2.25917e+08    31   2.27725e+08   2.25673e+08   208815    0.90%
  15581  8436   2.25917e+08    31   2.27725e+08   2.25673e+08   208817    0.90%
  15582  8437   2.25918e+08    31   2.27725e+08   2.25673e+08   208822    0.90%
  19630 11202   2.26214e+08    37   2.27725e+08   2.25673e+08   284019    0.90%
Elapsed time = 9.96 sec. (13120.51 ticks, tree = 6.99 MB, solutions = 18)
  23731 13596    infeasible         2.27725e+08   2.25673e+08   378816    0.90%
  23732 13596   2.27580e+08    30   2.27725e+08   2.25673e+08   379083    0.90%
  23733 13595        cutoff         2.27725e+08   2.25673e+08   379099    0.90%
  23734 13594    infeasible         2.27725e+08   2.25673e+08   379155    0.90%
  23735 13593    infeasible         2.27725e+08   2.25673e+08   379215    0.90%
  23736 13592        cutoff         2.27725e+08   2.25673e+08   379270    0.90%
  23737 13593   2.25673e+08    27   2.27725e+08   2.25673e+08   379380    0.90%
  23738 13594   2.25673e+08    32   2.27725e+08   2.25673e+08   379398    0.90%
  23739 13595   2.25673e+08    30   2.27725e+08   2.25673e+08   379399    0.90%
  23740 13596   2.25673e+08    28   2.27725e+08   2.25673e+08   379400    0.90%
Elapsed time = 12.68 sec. (16970.37 ticks, tree = 8.50 MB, solutions = 18)
* 24058 13583      integral     0   2.27632e+08   2.25673e+08   390283    0.86%
* 24305 13730      integral     0   2.27541e+08   2.25673e+08   392246    0.82%
* 24306 13127      integral     0   2.27112e+08   2.25673e+08   392246    0.63%
  26603 14751        cutoff         2.27112e+08   2.25673e+08   452602    0.63%
  26604 14752   2.25673e+08    35   2.27112e+08   2.25673e+08   452697    0.63%
  26605 14753   2.25673e+08    35   2.27112e+08   2.25673e+08   452699    0.63%
  26606 14754   2.25673e+08    29   2.27112e+08   2.25673e+08   452712    0.63%
  26607 14755   2.25673e+08    32   2.27112e+08   2.25673e+08   452717    0.63%
  26608 14756   2.25673e+08    31   2.27112e+08   2.25673e+08   452719    0.63%
  26609 14757   2.25673e+08    29   2.27112e+08   2.25673e+08   452727    0.63%
  26610 14758   2.25673e+08    27   2.27112e+08   2.25673e+08   452730    0.63%
  26611 14759   2.25673e+08    27   2.27112e+08   2.25673e+08   452738    0.63%
Elapsed time = 15.36 sec. (20796.73 ticks, tree = 9.14 MB, solutions = 21)
  29530 16299   2.25859e+08    42   2.27112e+08   2.25673e+08   536710    0.63%
  29531 16299   2.25859e+08    37   2.27112e+08   2.25673e+08   536760    0.63%
  29532 16300   2.25859e+08    37   2.27112e+08   2.25673e+08   536784    0.63%
  29533 16299        cutoff         2.27112e+08   2.25673e+08   536786    0.63%
  29534 16298        cutoff         2.27112e+08   2.25673e+08   536797    0.63%
  29535 16297        cutoff         2.27112e+08   2.25673e+08   536809    0.63%
  29536 16296    infeasible         2.27112e+08   2.25673e+08   536892    0.63%
  29537 16295    infeasible         2.27112e+08   2.25673e+08   536892    0.63%
  29538 16294        cutoff         2.27112e+08   2.25673e+08   536929    0.63%
  29539 16293        cutoff         2.27112e+08   2.25673e+08   537030    0.63%
Elapsed time = 18.47 sec. (24624.42 ticks, tree = 10.15 MB, solutions = 21)
  32235 17669        cutoff         2.27112e+08   2.25673e+08   624989    0.63%
  32236 17670   2.25673e+08    27   2.27112e+08   2.25673e+08   625111    0.63%
  32237 17671   2.25673e+08    24   2.27112e+08   2.25673e+08   625114    0.63%
  32238 17672   2.25673e+08    24   2.27112e+08   2.25673e+08   625121    0.63%
  32239 17673   2.25673e+08    27   2.27112e+08   2.25673e+08   625140    0.63%
  32240 17674   2.25673e+08    27   2.27112e+08   2.25673e+08   625141    0.63%
  32241 17675   2.25673e+08    28   2.27112e+08   2.25673e+08   625209    0.63%
  32242 17676   2.25673e+08    22   2.27112e+08   2.25673e+08   625216    0.63%
  32243 17676   2.26154e+08    32   2.27112e+08   2.25673e+08   625309    0.63%
  32244 17675        cutoff         2.27112e+08   2.25673e+08   625323    0.63%
Elapsed time = 22.10 sec. (28452.57 ticks, tree = 11.44 MB, solutions = 21)
  34838 18919        cutoff         2.27112e+08   2.25673e+08   707345    0.63%
  34839 18918    infeasible         2.27112e+08   2.25673e+08   707345    0.63%
  34840 18917        cutoff         2.27112e+08   2.25673e+08   707421    0.63%
  34841 18916    infeasible         2.27112e+08   2.25673e+08   707476    0.63%
  34842 18915        cutoff         2.27112e+08   2.25673e+08   707521    0.63%
  34843 18916   2.26419e+08    30   2.27112e+08   2.25673e+08   707642    0.63%
  34844 18915        cutoff         2.27112e+08   2.25673e+08   707655    0.63%
  34845 18914        cutoff         2.27112e+08   2.25673e+08   707672    0.63%
  34846 18913        cutoff         2.27112e+08   2.25673e+08   707700    0.63%
  34847 18912    infeasible         2.27112e+08   2.25673e+08   707758    0.63%
Elapsed time = 25.67 sec. (32281.54 ticks, tree = 12.24 MB, solutions = 21)
  38678 21017        cutoff         2.27112e+08   2.25673e+08   799465    0.63%
  38679 21018   2.26886e+08    25   2.27112e+08   2.25673e+08   799482    0.63%
  38680 21019   2.26886e+08    23   2.27112e+08   2.25673e+08   799483    0.63%
  38681 21020   2.26886e+08    24   2.27112e+08   2.25673e+08   799522    0.63%
  38682 21021   2.26886e+08    25   2.27112e+08   2.25673e+08   799552    0.63%
  38683 21022   2.26886e+08    24   2.27112e+08   2.25673e+08   799561    0.63%
  38684 21023   2.26886e+08    21   2.27112e+08   2.25673e+08   799572    0.63%
  38685 21024   2.26886e+08    18   2.27112e+08   2.25673e+08   799574    0.63%
  38686 21025   2.26886e+08    27   2.27112e+08   2.25673e+08   799604    0.63%
  38687 21026   2.26886e+08    30   2.27112e+08   2.25673e+08   799609    0.63%
Elapsed time = 29.23 sec. (36101.62 ticks, tree = 13.59 MB, solutions = 21)
  41937 23395   2.26662e+08    34   2.27112e+08   2.25673e+08   886660    0.63%
  41938 23394        cutoff         2.27112e+08   2.25673e+08   886674    0.63%
  41939 23393        cutoff         2.27112e+08   2.25673e+08   886676    0.63%
  41940 23392        cutoff         2.27112e+08   2.25673e+08   886815    0.63%
  41941 23393   2.25673e+08    28   2.27112e+08   2.25673e+08   886873    0.63%
  41942 23394   2.25673e+08    27   2.27112e+08   2.25673e+08   886920    0.63%
  41943 23394   2.25805e+08    38   2.27112e+08   2.25673e+08   886940    0.63%
  41944 23394   2.25805e+08    38   2.27112e+08   2.25673e+08   886942    0.63%
  41945 23393        cutoff         2.27112e+08   2.25673e+08   886947    0.63%
  41946 23392    infeasible         2.27112e+08   2.25673e+08   887015    0.63%
Elapsed time = 32.83 sec. (39944.02 ticks, tree = 15.17 MB, solutions = 21)
  45081 25054   2.25761e+08    34   2.27112e+08   2.25673e+08   971677    0.63%
  45082 25055   2.25761e+08    33   2.27112e+08   2.25673e+08   971694    0.63%
  45083 25056   2.25761e+08    31   2.27112e+08   2.25673e+08   971696    0.63%
  45084 25057   2.26157e+08    43   2.27112e+08   2.25673e+08   971771    0.63%
  45085 25058   2.26175e+08    40   2.27112e+08   2.25673e+08   971775    0.63%
  45086 25059   2.26175e+08    40   2.27112e+08   2.25673e+08   971778    0.63%
  45087 25060   2.26301e+08    40   2.27112e+08   2.25673e+08   971789    0.63%
  45088 25061   2.26301e+08    37   2.27112e+08   2.25673e+08   971794    0.63%
  45089 25060        cutoff         2.27112e+08   2.25673e+08   971802    0.63%
  45090 25061   2.26304e+08    42   2.27112e+08   2.25673e+08   971813    0.63%
Elapsed time = 36.43 sec. (43764.39 ticks, tree = 16.25 MB, solutions = 21)
  48839 26987   2.25673e+08    23   2.27112e+08   2.25673e+08  1060808    0.63%
  48840 26988   2.25673e+08    21   2.27112e+08   2.25673e+08  1060809    0.63%
  48841 26989   2.25673e+08    21   2.27112e+08   2.25673e+08  1060811    0.63%
  48842 26988    infeasible         2.27112e+08   2.25673e+08  1060879    0.63%
  48843 26989   2.25673e+08    24   2.27112e+08   2.25673e+08  1060887    0.63%
  48844 26990   2.25673e+08    24   2.27112e+08   2.25673e+08  1060931    0.63%
  48845 26991   2.25673e+08    21   2.27112e+08   2.25673e+08  1060934    0.63%
  48846 26992   2.25673e+08    25   2.27112e+08   2.25673e+08  1060963    0.63%
  48847 26993   2.25673e+08    24   2.27112e+08   2.25673e+08  1060973    0.63%
  48848 26994   2.25673e+08    23   2.27112e+08   2.25673e+08  1060978    0.63%
Elapsed time = 39.98 sec. (47585.96 ticks, tree = 17.83 MB, solutions = 21)
  52567 28717   2.26005e+08    37   2.27112e+08   2.25673e+08  1150494    0.63%
  52568 28716        cutoff         2.27112e+08   2.25673e+08  1150502    0.63%
  52569 28715    infeasible         2.27112e+08   2.25673e+08  1150502    0.63%
  52570 28716   2.25673e+08    27   2.27112e+08   2.25673e+08  1150571    0.63%
  52571 28715        cutoff         2.27112e+08   2.25673e+08  1150628    0.63%
  52572 28714        cutoff         2.27112e+08   2.25673e+08  1150657    0.63%
  52573 28713    infeasible         2.27112e+08   2.25673e+08  1150710    0.63%
  52574 28712    infeasible         2.27112e+08   2.25673e+08  1150797    0.63%
  52575 28711        cutoff         2.27112e+08   2.25673e+08  1150877    0.63%
  52576 28712   2.25673e+08    21   2.27112e+08   2.25673e+08  1150944    0.63%
Elapsed time = 43.50 sec. (51419.30 ticks, tree = 18.93 MB, solutions = 21)
  56005 30067   2.25673e+08    24   2.27112e+08   2.25673e+08  1243417    0.63%
  56006 30066    infeasible         2.27112e+08   2.25673e+08  1243501    0.63%
  56007 30067   2.25673e+08    24   2.27112e+08   2.25673e+08  1243593    0.63%
  56008 30068   2.25673e+08    23   2.27112e+08   2.25673e+08  1243594    0.63%
  56009 30069   2.25673e+08    22   2.27112e+08   2.25673e+08  1243617    0.63%
  56010 30070   2.25673e+08    22   2.27112e+08   2.25673e+08  1243619    0.63%
  56011 30071   2.25673e+08    23   2.27112e+08   2.25673e+08  1243624    0.63%
  56012 30072   2.25673e+08    20   2.27112e+08   2.25673e+08  1243625    0.63%
  56013 30073   2.25673e+08    21   2.27112e+08   2.25673e+08  1243636    0.63%
  56014 30073   2.26353e+08    35   2.27112e+08   2.25673e+08  1243761    0.63%
Elapsed time = 47.09 sec. (55251.68 ticks, tree = 19.82 MB, solutions = 21)
  59715 31383   2.26402e+08    30   2.27112e+08   2.25673e+08  1330640    0.63%
  59716 31384   2.26422e+08    40   2.27112e+08   2.25673e+08  1330674    0.63%
  59717 31383        cutoff         2.27112e+08   2.25673e+08  1330678    0.63%
  59718 31384   2.26475e+08    28   2.27112e+08   2.25673e+08  1330698    0.63%
  59719 31383        cutoff         2.27112e+08   2.25673e+08  1330700    0.63%
  59720 31382        cutoff         2.27112e+08   2.25673e+08  1330702    0.63%
  59721 31381        cutoff         2.27112e+08   2.25673e+08  1330717    0.63%
  59722 31380        cutoff         2.27112e+08   2.25673e+08  1330770    0.63%
  59723 31379        cutoff         2.27112e+08   2.25673e+08  1330793    0.63%
  59724 31380   2.25673e+08    25   2.27112e+08   2.25673e+08  1330890    0.63%
Elapsed time = 50.56 sec. (59076.15 ticks, tree = 20.77 MB, solutions = 21)
  63139 32303   2.26255e+08    27   2.27112e+08   2.25673e+08  1421606    0.63%
  63140 32304   2.26255e+08    28   2.27112e+08   2.25673e+08  1421607    0.63%
  63141 32305   2.26255e+08    28   2.27112e+08   2.25673e+08  1421608    0.63%
  63142 32306   2.26255e+08    28   2.27112e+08   2.25673e+08  1421609    0.63%
  63143 32307   2.26255e+08    28   2.27112e+08   2.25673e+08  1421625    0.63%
  63144 32308   2.26255e+08    28   2.27112e+08   2.25673e+08  1421627    0.63%
  63145 32309   2.26255e+08    28   2.27112e+08   2.25673e+08  1421632    0.63%
  63146 32310   2.26255e+08    28   2.27112e+08   2.25673e+08  1421634    0.63%
  63147 32311   2.26255e+08    28   2.27112e+08   2.25673e+08  1421636    0.63%
  63148 32312   2.26255e+08    27   2.27112e+08   2.25673e+08  1421638    0.63%
Elapsed time = 54.16 sec. (62894.87 ticks, tree = 21.36 MB, solutions = 21)
  66753 33923   2.25673e+08    25   2.27112e+08   2.25673e+08  1513676    0.63%
  66754 33922    infeasible         2.27112e+08   2.25673e+08  1513735    0.63%
  66755 33923   2.25673e+08    25   2.27112e+08   2.25673e+08  1513809    0.63%
  66756 33922        cutoff         2.27112e+08   2.25673e+08  1513849    0.63%
  66757 33923   2.25673e+08    22   2.27112e+08   2.25673e+08  1513920    0.63%
  66758 33924   2.25673e+08    21   2.27112e+08   2.25673e+08  1513932    0.63%
  66759 33923        cutoff         2.27112e+08   2.25673e+08  1513945    0.63%
  66760 33924   2.25673e+08    21   2.27112e+08   2.25673e+08  1513947    0.63%
  66761 33925   2.25673e+08    21   2.27112e+08   2.25673e+08  1513965    0.63%
  66762 33925   2.25749e+08    33   2.27112e+08   2.25673e+08  1513987    0.63%
Elapsed time = 57.70 sec. (66721.21 ticks, tree = 23.36 MB, solutions = 21)
  71072 36374   2.25673e+08    23   2.27112e+08   2.25673e+08  1611778    0.63%
  71073 36375   2.25673e+08    20   2.27112e+08   2.25673e+08  1611787    0.63%
  71074 36376   2.25673e+08    20   2.27112e+08   2.25673e+08  1611803    0.63%
  71075 36377   2.25673e+08    21   2.27112e+08   2.25673e+08  1611820    0.63%
  71076 36378   2.25673e+08    22   2.27112e+08   2.25673e+08  1611858    0.63%
  71077 36379   2.25673e+08    22   2.27112e+08   2.25673e+08  1611859    0.63%
  71078 36380   2.25673e+08    20   2.27112e+08   2.25673e+08  1611892    0.63%
  71079 36381   2.25673e+08    21   2.27112e+08   2.25673e+08  1611920    0.63%
  71080 36382   2.25673e+08    25   2.27112e+08   2.25673e+08  1611957    0.63%
  71081 36383   2.25673e+08    23   2.27112e+08   2.25673e+08  1611958    0.63%
Elapsed time = 61.29 sec. (70542.32 ticks, tree = 24.99 MB, solutions = 21)
  75427 37981   2.26896e+08    34   2.27112e+08   2.25673e+08  1709844    0.63%
  75428 37982   2.26896e+08    31   2.27112e+08   2.25673e+08  1709865    0.63%
  75429 37981        cutoff         2.27112e+08   2.25673e+08  1709870    0.63%
  75430 37980        cutoff         2.27112e+08   2.25673e+08  1709871    0.63%
  75431 37981   2.25673e+08    21   2.27112e+08   2.25673e+08  1709892    0.63%
  75432 37982   2.25673e+08    24   2.27112e+08   2.25673e+08  1710014    0.63%
  75433 37983   2.25894e+08    27   2.27112e+08   2.25673e+08  1710180    0.63%
  75434 37982        cutoff         2.27112e+08   2.25673e+08  1710197    0.63%
  75435 37981    infeasible         2.27112e+08   2.25673e+08  1710197    0.63%
  75436 37982   2.25673e+08    19   2.27112e+08   2.25673e+08  1710240    0.63%
Elapsed time = 64.82 sec. (74371.86 ticks, tree = 26.07 MB, solutions = 21)
  78701 39859   2.25936e+08    29   2.27112e+08   2.25673e+08  1804753    0.63%
  78702 39860   2.25936e+08    29   2.27112e+08   2.25673e+08  1804766    0.63%
  78703 39859        cutoff         2.27112e+08   2.25673e+08  1804802    0.63%
  78704 39860   2.27078e+08    25   2.27112e+08   2.25673e+08  1804819    0.63%
  78705 39861   2.26213e+08    31   2.27112e+08   2.25673e+08  1804839    0.63%
  78706 39860        cutoff         2.27112e+08   2.25673e+08  1804842    0.63%
  78707 39859        cutoff         2.27112e+08   2.25673e+08  1804858    0.63%
  78708 39860   2.25836e+08    39   2.27112e+08   2.25673e+08  1805117    0.63%
  78709 39861   2.25836e+08    45   2.27112e+08   2.25673e+08  1805119    0.63%
  78710 39862   2.25836e+08    35   2.27112e+08   2.25673e+08  1805145    0.63%
Elapsed time = 68.47 sec. (78205.63 ticks, tree = 27.23 MB, solutions = 21)
  82533 41819   2.25673e+08    23   2.27112e+08   2.25673e+08  1892237    0.63%
  82534 41818        cutoff         2.27112e+08   2.25673e+08  1892347    0.63%
  82535 41818   2.26050e+08    26   2.27112e+08   2.25673e+08  1892524    0.63%
  82536 41819   2.26050e+08    25   2.27112e+08   2.25673e+08  1892551    0.63%
  82537 41820   2.26050e+08    25   2.27112e+08   2.25673e+08  1892553    0.63%
  82538 41820   2.26122e+08    25   2.27112e+08   2.25673e+08  1892589    0.63%
  82539 41819        cutoff         2.27112e+08   2.25673e+08  1892592    0.63%
  82540 41820   2.25673e+08    32   2.27112e+08   2.25673e+08  1892693    0.63%
  82541 41821   2.25673e+08    27   2.27112e+08   2.25673e+08  1892706    0.63%
  82542 41822   2.25673e+08    26   2.27112e+08   2.25673e+08  1892712    0.63%
Elapsed time = 71.97 sec. (82040.69 ticks, tree = 28.55 MB, solutions = 21)
  87062 44098        cutoff         2.27112e+08   2.25673e+08  1989069    0.63%
  87063 44097        cutoff         2.27112e+08   2.25673e+08  1989160    0.63%
  87064 44096    infeasible         2.27112e+08   2.25673e+08  1989160    0.63%
  87065 44095        cutoff         2.27112e+08   2.25673e+08  1989241    0.63%
  87066 44094        cutoff         2.27112e+08   2.25673e+08  1989245    0.63%
  87067 44095   2.25936e+08    34   2.27112e+08   2.25673e+08  1989371    0.63%
  87068 44096   2.25936e+08    34   2.27112e+08   2.25673e+08  1989372    0.63%
  87069 44097   2.25936e+08    33   2.27112e+08   2.25673e+08  1989373    0.63%
  87070 44098   2.25936e+08    33   2.27112e+08   2.25673e+08  1989375    0.63%
  87071 44099   2.25936e+08    33   2.27112e+08   2.25673e+08  1989385    0.63%
Elapsed time = 75.60 sec. (85870.47 ticks, tree = 30.05 MB, solutions = 21)
  90922 46066        cutoff         2.27112e+08   2.25673e+08  2077901    0.63%
  90923 46067   2.25673e+08    31   2.27112e+08   2.25673e+08  2077988    0.63%
  90924 46068   2.25673e+08    29   2.27112e+08   2.25673e+08  2077998    0.63%
  90925 46069   2.25673e+08    29   2.27112e+08   2.25673e+08  2078078    0.63%
  90926 46070   2.25673e+08    28   2.27112e+08   2.25673e+08  2078080    0.63%
  90927 46071   2.25673e+08    24   2.27112e+08   2.25673e+08  2078167    0.63%
  90928 46072   2.25673e+08    31   2.27112e+08   2.25673e+08  2078179    0.63%
  90929 46073   2.25673e+08    31   2.27112e+08   2.25673e+08  2078182    0.63%
  90930 46074   2.25673e+08    20   2.27112e+08   2.25673e+08  2078183    0.63%
  90931 46073        cutoff         2.27112e+08   2.25673e+08  2078197    0.63%
Elapsed time = 79.25 sec. (89699.19 ticks, tree = 31.33 MB, solutions = 21)
  94460 47598   2.25870e+08    35   2.27112e+08   2.25673e+08  2166591    0.63%
  94461 47599   2.25673e+08    22   2.27112e+08   2.25673e+08  2166602    0.63%
  94462 47600   2.25673e+08    20   2.27112e+08   2.25673e+08  2166616    0.63%
  94463 47601   2.25673e+08    25   2.27112e+08   2.25673e+08  2166702    0.63%
  94464 47602   2.25673e+08    23   2.27112e+08   2.25673e+08  2166710    0.63%
  94465 47603   2.25673e+08    23   2.27112e+08   2.25673e+08  2166717    0.63%
  94466 47604   2.25859e+08    38   2.27112e+08   2.25673e+08  2166876    0.63%
  94467 47605   2.25673e+08    23   2.27112e+08   2.25673e+08  2166879    0.63%
  94468 47606   2.25673e+08    24   2.27112e+08   2.25673e+08  2166888    0.63%
  94469 47607   2.25673e+08    22   2.27112e+08   2.25673e+08  2166894    0.63%
Elapsed time = 82.82 sec. (93526.28 ticks, tree = 32.27 MB, solutions = 21)
  97629 49340   2.25673e+08    23   2.27112e+08   2.25673e+08  2257901    0.63%
  97630 49341   2.25673e+08    23   2.27112e+08   2.25673e+08  2257903    0.63%
  97631 49342   2.25673e+08    23   2.27112e+08   2.25673e+08  2257937    0.63%
  97632 49343   2.25673e+08    21   2.27112e+08   2.25673e+08  2257945    0.63%
  97633 49344   2.25673e+08    21   2.27112e+08   2.25673e+08  2257962    0.63%
  97634 49345   2.25673e+08    21   2.27112e+08   2.25673e+08  2257976    0.63%
  97635 49346   2.25673e+08    23   2.27112e+08   2.25673e+08  2257978    0.63%
  97636 49345    infeasible         2.27112e+08   2.25673e+08  2257978    0.63%
  97637 49346   2.25673e+08    24   2.27112e+08   2.25673e+08  2257985    0.63%
  97638 49347   2.25673e+08    24   2.27112e+08   2.25673e+08  2257988    0.63%
Elapsed time = 86.44 sec. (97344.23 ticks, tree = 33.49 MB, solutions = 21)
 100848 50804   2.25673e+08    20   2.27112e+08   2.25673e+08  2344869    0.63%
 100849 50805   2.25673e+08    21   2.27112e+08   2.25673e+08  2344890    0.63%
 100850 50806   2.25673e+08    26   2.27112e+08   2.25673e+08  2344900    0.63%
 100851 50807   2.25673e+08    26   2.27112e+08   2.25673e+08  2344901    0.63%
 100852 50808   2.25673e+08    24   2.27112e+08   2.25673e+08  2344902    0.63%
 100853 50809   2.25673e+08    22   2.27112e+08   2.25673e+08  2344903    0.63%
 100854 50810   2.25673e+08    17   2.27112e+08   2.25673e+08  2344923    0.63%
 100855 50811   2.25673e+08    20   2.27112e+08   2.25673e+08  2344985    0.63%
 100856 50812   2.25673e+08    19   2.27112e+08   2.25673e+08  2345002    0.63%
 100857 50813   2.25673e+08    18   2.27112e+08   2.25673e+08  2345038    0.63%
Elapsed time = 90.05 sec. (101165.82 ticks, tree = 34.38 MB, solutions = 21)
 102999 51610   2.25885e+08    37   2.27112e+08   2.25673e+08  2405253    0.63%
 103000 51611   2.25886e+08    36   2.27112e+08   2.25673e+08  2405256    0.63%
 103001 51612   2.25890e+08    36   2.27112e+08   2.25673e+08  2405258    0.63%
 103002 51613   2.25890e+08    36   2.27112e+08   2.25673e+08  2405261    0.63%
 103003 51614   2.25890e+08    36   2.27112e+08   2.25673e+08  2405263    0.63%
 103004 51615   2.26040e+08    32   2.27112e+08   2.25673e+08  2405284    0.63%
 103005 51615   2.26412e+08    32   2.27112e+08   2.25673e+08  2405328    0.63%
 103006 51616   2.26412e+08    32   2.27112e+08   2.25673e+08  2405331    0.63%
 103007 51617   2.26412e+08    31   2.27112e+08   2.25673e+08  2405338    0.63%
 103008 51618   2.26440e+08    30   2.27112e+08   2.25673e+08  2405349    0.63%
Elapsed time = 93.48 sec. (105053.45 ticks, tree = 34.87 MB, solutions = 21)
 105304 52478        cutoff         2.27112e+08   2.25673e+08  2470384    0.63%
 105305 52477    infeasible         2.27112e+08   2.25673e+08  2470462    0.63%
 105306 52478   2.25673e+08    22   2.27112e+08   2.25673e+08  2470514    0.63%
 105307 52479   2.25673e+08    22   2.27112e+08   2.25673e+08  2470516    0.63%
 105308 52480   2.26563e+08    27   2.27112e+08   2.25673e+08  2470668    0.63%
 105309 52481   2.26563e+08    26   2.27112e+08   2.25673e+08  2470678    0.63%
 105310 52481   2.26563e+08    26   2.27112e+08   2.25673e+08  2470693    0.63%
 105311 52482   2.26830e+08    26   2.27112e+08   2.25673e+08  2470719    0.63%
 105312 52483   2.26830e+08    26   2.27112e+08   2.25673e+08  2470720    0.63%
 105313 52483   2.26830e+08    26   2.27112e+08   2.25673e+08  2470721    0.63%
Elapsed time = 96.89 sec. (108882.11 ticks, tree = 35.41 MB, solutions = 21)

Cover cuts applied:  458
Mixed integer rounding cuts applied:  8
Zero-half cuts applied:  1
Gomory fractional cuts applied:  8

Root node processing (before b&c):
  Real time             =    0.06 sec. (66.93 ticks)
Sequential b&c:
  Real time             =   99.94 sec. (112339.62 ticks)
                          ------------
Total (root+branch&cut) =  100.00 sec. (112406.55 ticks)

Solution pool: 21 solutions saved.

MIP - Time limit exceeded, integer feasible:  Objective =  2.2711229500e+08
Current MIP best bound =  2.2567326400e+08 (gap = 1.43903e+06, 0.63%)
Solution time =  100.00 sec.  Iterations = 2525891  Nodes = 107065 (52979)
Deterministic time = 112406.55 ticks  (1124.06 ticks/sec)


Incumbent solution written to file '/tmp/tmpZrhzfL.cplex.sol'.
